NAME: tsp50_19
COMMENT: 50-tsp problem (Padberg/Rinaldi)
TYPE: TSP
DIMENSION: 50
EDGE_WEIGHT_TYPE : EUC_2D
NODE_COORD_SECTION
1 28 17
2 13 2
3 5 4
4 9 28
5 36 14
6 36 2
7 10 19
8 29 38
9 7 7
10 15 17
11 28 25
12 18 11
13 2 7
14 25 23
15 4 4
16 30 3
17 4 20
18 23 0
19 29 9
20 22 28
21 19 27
22 21 16
23 4 20
24 9 32
25 31 15
26 28 8
27 35 9
28 39 31
29 38 38
30 17 31
31 25 35
32 27 12
33 11 14
34 34 37
35 16 12
36 4 17
37 13 3
38 22 6
39 12 28
40 21 32
41 1 26
42 18 22
43 9 14
44 25 33
45 28 19
46 30 29
47 30 29
48 21 23
49 25 26
50 20 24
